p tw 20 115
0 1
0 2
0 12
0 6
0 13
0 7
0 16
0 15
1 2
1 11
1 17
1 19
1 7
1 16
1 8
1 10
1 15
1 3
2 5
2 11
2 12
2 6
2 13
2 16
2 7
2 8
2 15
2 17
2 19
2 14
2 4
3 4
3 5
3 10
3 14
3 15
3 11
3 12
3 13
3 9
3 7
3 19
3 17
4 5
4 7
4 11
4 10
4 12
4 19
4 6
4 8
5 6
5 7
5 11
5 13
5 15
5 10
5 12
5 9
5 14
5 19
6 7
6 13
6 11
6 19
6 12
6 16
6 18
6 15
6 14
7 11
7 12
7 9
7 18
7 16
7 8
7 15
7 19
8 9
8 10
8 12
8 18
8 16
8 15
8 14
9 10
9 11
9 15
9 12
9 18
9 14
10 14
10 11
10 12
11 12
11 13
11 15
11 17
11 19
11 18
11 14
12 13
12 15
12 18
12 16
12 19
12 14
13 16
13 15
14 15
14 19
14 18
15 19
15 17
16 18
